c Lingeling SAT Solver
c 
c Version ala b02aa1a04343558c4252b5f4a723be021964f652
c 
c Copyright (C) 2010-2012 Armin Biere JKU Linz Austria.
c All rights reserved.
c 
c released Sat Oct 13 14:05:26 CEST 2012
c compiled Sat Feb 16 02:48:12 EST 2013
c 
c gcc (Debian 4.4.5-8) 4.4.5
c -Wall -O3 -DNLGLOG -DNDEBUG -DNCHKSOL -DNLGLPICOSAT 
c Linux greencar2 2.6.32-5-amd64 x86_64
c 
c reading input file p25.cnf
c no embedded options
c found 'p cnf 217787 673916' header
c read 217787 variables, 673916 clauses, 1401695 literals in 0.0 seconds
c
c feature vars 217787
c feature lits.total 1401695
c feature lits.pos 746884
c feature lits.neg 654811
c feature clauses.total 673916
c feature clauses.unit 81433
c feature clauses.bin 474587
c feature clauses.trn 116496
c feature clauses.lrg 1400
c feature cog.val.min 1
c feature cog.val.avg 97068
c feature cog.val.max 209445
c feature cog.var.min 1
c feature cog.var.avg 108894
c feature cog.var.max 217786
c
c
c --abstime=0
c --acts=2
c --actavgmax=120
c --actstdmin=20
c --actstdmax=80
c --agile=23
c --bias=2
c --block=1
c --blkrtc=0
c --blkclslim=2000
c --blkocclim=2000
c --blkmaxeff=2147483647
c --blkmineff=10000000
c --blkreleff=20
c --card=0
c --cce=3
c --ccemaxeff=100000000
c --ccemineff=5000000
c --ccereleff=3
c --check=0
c --cgrclsr=1
c --cgrmaxority=20
c --cgrmaxeff=8000000
c --cgrmineff=200000
c --cgreleff=1
c --cgrexteq=1
c --cgrextand=1
c --cgrextunits=1
c --cgrextite=1
c --cgrextxor=1
c --cliff=1
c --cliffreleff=8
c --cliffmineff=10000000
c --cliffmaxeff=100000000
c --compact=0
c --decompose=1
c --defragint=10000000
c --defragfree=50
c --elim=1
c --elmrtc=0
c --elmblk=1
c --elmclslim=1000
c --elmocclim=1000
c --elmaxeff=100000000
c --elmineff=5000000
c --elmreleff=10
c --sleeponabort=0
c --exitonabort=0
c --flipping=1
c --flipint=2
c --flipdur=50
c --fliptop=1
c --force=0
c --gauss=1
c --gaussextrall=1
c --gaussmaxor=20
c --gaussexptrn=1
c --gaussmaxeff=50000000
c --gaussmineff=2000000
c --gaussreleff=2
c --gluescale=2
c --gluekeep=0
c --inprocessing=1
c --cintinc=10000
c --irrlim=20
c --lift=1
c --lftmaxeff=20000000
c --lftmineff=500000
c --lftreleff=6
c --lhbr=1
c --lkhd=1
c --clim=-1
c --mocint=1000
c --move=2
c --log=-1
c --otfs=1
c --phase=0
c --phaseneginit=0
c --plain=0
c --probe=1
c --prbasicmaxeff=100000000
c --prbasicmineff=1000000
c --prbasicreleff=10
c --prbasic=1
c --prbasicroundlim=9
c --queuemergelim=10000
c --queuefactor=833
c --queueinc=20
c --rmincpen=4
c --seed=0
c --smallirr=90
c --smallve=1
c --smallvevars=12
c --randec=1
c --randecint=1000
c --redfixed=0
c --redlbound=0
c --redlexpfac=10
c --redldoutfac=0
c --redloutinc=10000
c --redlinit=1000
c --redlinc=1000
c --redinoutinc=100
c --redlmininc=10
c --redlmaxinc=200
c --redlminrel=10
c --redlmaxrel=300
c --redlminabs=500
c --redlmaxabs=1000000
c --reduce=1
c --restart=2
c --restartint=5
c --rstinoutinc=110
c --simplify=1
c --simpdelay=100
c --simpen=4
c --sizepen=1000000
c --sizemaxpen=3
c --sortlits=0
c --syncint=111111
c --termint=122222
c --ternres=1
c --ternresrtc=0
c --trnrmineff=4000000
c --trnrmaxeff=40000000
c --trnreleff=10
c --transred=1
c --trdmineff=100000
c --trdmaxeff=2000000
c --trdreleff=10
c --unhide=1
c --unhdextstamp=1
c --unhdhbr=0
c --unhdmaxeff=20000000
c --unhdmineff=1000000
c --unhdreleff=4
c --unhdlnpr=3
c --unhdroundlim=5
c --verbose=1
c --witness=1
c [limits] no conflict limit
c [limits] simplification delayed by 100 to 100 conflicts
c 
c  seconds         irredundant          redundant clauses agility   height
c          variables clauses conflicts large binary ternary    glue         MB
c 
c *    0.0  119696   501017         0       0      0     0  63  0.0   0.0   41
c [cut-width] 166323, max 260073, min4 110144 at 75%, min10 32549 at 89%
c [decision-order] bias 1, old 1
c [queue-schedule-all-variables]
c s    0.0  119696   501017         0       0      0     0  63  0.0   0.0   41
c [simplification-1] limit hit at 100 conflicts
c [simplification-1] simplification penalty of 4
c [ternres-1] limit 4000000 with penalty 0 = 0 + 0
c [ternres-1] all 119696 free variables schedulable
c [ternres-1] 0 ternary resolvents (0 bin, 0 trn)
c [ternres-1] 23611 variables remain 20% (96085 retained)
c [gauss-1] limit 2000000 penalty 0 = 0 + 0
c [gauss-1] extracted 167273 xors of average arity 2.0
c [gauss-1] connected 334547 occurrences of 90416 variables (average 3.7)
c [gauss-1] limit 2000000 penalty 0 = 0 + 0
c [gauss-1] exported 0 unary, 0 binary and 0 ternary equations
c G    0.6  119696   479743       100      99      1     0  58  5.9 310.3   27
c d    0.8   55090   249035       100      99      1     0  58  5.9 310.3   20
c [basicprobe-1] limit 1000000 penalty 0 = 0 + 0
c [basicprobe-1-0] 3972 probes remain 7% after last round
c [basicprobe-1-0] 1 units = 1 failed (100%) + 0 lifted (0%)
c [basicprobe-1-0] removed 1 variables, found 1362 hbrs
c p    0.8   55089   249035       100      99   1363     0  58  5.9 310.3   24
c [cgrclsr-1] limit 200000 penalty 0 = 0 + 0
c [cgrclsr-1] all 55089 free variables schedulable
c [cgrclsr-1] fully completed congruence closure
c [lift-1] limit 500000 with penalty 0 = 0 + 0
c [lift-1] using 55089 probes 100%
c [lift-1] 55068 variables remain 100% (21 retained)
c [cliff-1] limit of 10000000 steps penalty 0 = 0 + 0
c [cliff-1] failed 0, lifted 1
c K    1.3   55088   249031       100      99  20506     0  58  5.9 310.3   25
c [unhide-1] limit 1000000 with penalty 0 = 0 + 0
c [unhide-1-1] 0 units, 1 failed, 19454 tauts, 0 hbrs, 43 literals
c u    1.5   55087   229572       100      98  20506     1  58  5.9 310.3   25
c [transred-1] limit 100000 with penalty 0 = 0 + 0
c t    1.5   55087   229572       100      98  20500     1  58  5.9 310.3   25
c [block-1] scheduling all variables this time
c [block-1] scheduled 55087 variables 100%
c [block-1] limit of 10000000 steps penalty 0 = 0 + 0
c [block-1] fully completed blocked clause elimination
c [block-1] transition to [ all 0 rem 0 ] state
c [block-1] eliminated 4400 blocked clauses
c k    1.6   55087   225168       100      98  20500  4401  58  5.9 310.3   21
c [cce-1] scheduling all variables this time
c [cce-1] limit of 10000000 steps penalty 0 = 0 + 0
c [cce-1] incomplete covered clause elimination 49464 not tried 90%
c [cce-1] transition to [ all 1 rem 1 ] state
c [cce-1] eliminated 83 covered clauses
c E    2.0   55084   225085       100      98  27351  4400  58  5.9 310.3   21
c [elim-1] scheduling all variables this time
c [elim-1] scheduled 55084 variables 100%
c [elim-1] limit of 5000000 steps penalty 0 = 0 + 0
c [elim-1] incomplete variable elimination 40602 not tried 74%
c [elim-1] transition to [ all 1 rem 1 ] state
c [elim-1] eliminated 6240 = 11% variables out of 55084
c e    2.9   48844   221423       100      51  10636   550  58  5.9 310.3   20
c [phase-1] phase bias: 68 positive 30%, 159 negative 70%
c [simplification-1] removed 70852 variables 59%
c [simplification-1] limit increments divided by 30
c [simplification-1] arithmetic increase of conflict limit interval by 333
c [simplification-1] new irredundant limit 2195675
c [simplification-1] new conflict limit 433
c [simplification-1] simplification penalty reduced to 3
c R    3.0   48844   221423       161     111  10636   550  19  7.0 312.8   25
c R    3.1   48844   221423       406     312  10649   578   4  6.9 273.4   25
c [simplification-2] limit hit at 433 conflicts
c [simplification-2] simplification penalty of 3
c [ternres-2] limit 2000000 with penalty 1 = 1 + 0
c [ternres-2] 9653 schedulable variables 20%
c [ternres-2] 11 ternary resolvents (0 bin, 11 trn)
c [ternres-2] fully completed ternary resolution
c T    3.1   48844   221423       433     328  10650   599   3  6.7 269.2   25
c [gauss-2] limit 1000000 penalty 1 = 1 + 0
c [gauss-2] extracted 417 xors of average arity 3.0
c [gauss-2] connected 1251 occurrences of 945 variables (average 1.3)
c [gauss-2] limit 1000000 penalty 1 = 1 + 0
c [gauss-2] fully completed
c [gauss-2] exported 0 unary, 0 binary and 0 ternary equations
c G    3.2   48844   221423       433     328  10650   599   3  6.7 269.2   20
c [basicprobe-2] limit 1000000 penalty 0 = 0 + 0
c [basicprobe-2-0] 3681 probes remain 8% after last round
c [basicprobe-2-0] removed 0 variables, found 573 hbrs
c p    3.3   48844   221423       433     328  11223   597   3  6.7 269.2   25
c [cgrclsr-2] limit 100000 penalty 1 = 1 + 0
c [cgrclsr-2] all 48844 free variables schedulable
c [cgrclsr-2] fully completed congruence closure
c [lift-2] limit 250000 with penalty 1 = 1 + 0
c [lift-2] using 48824 probes 100%
c [lift-2] 48811 variables remain 100% (33 retained)
c [cliff-2] limit of 10000000 steps penalty 0 = 0 + 0
c [cliff-2] failed 0, lifted 0
c [unhide-2] limit 1000000 with penalty 0 = 0 + 0
c [unhide-2-2] 0 units, 0 failed, 898 tauts, 0 hbrs, 106 literals
c u    3.9   48844   221417       433     327  10905   595   3  6.7 269.2   24
c [transred-3] limit 100000 with penalty 0 = 0 + 0
c t    3.9   48844   221417       433     327  10897   595   3  6.7 269.2   24
c [block-2] scheduling all variables this time
c [block-2] scheduled 48844 variables 100%
c [block-2] limit of 10000000 steps penalty 0 = 0 + 0
c [block-2] fully completed blocked clause elimination
c [block-2] transition to [ all 0 rem 0 ] state
c [block-2] eliminated 0 blocked clauses
c [cce-2] 45996 variables 94% will be scheduled this time
c [cce-2] limit of 10000000 steps penalty 0 = 0 + 0
c [cce-2] 45472 variables 93% remain to be tried next time
c [cce-2] transition to [ all 0 rem 1 ] state
c [cce-2] eliminated 363 covered clauses
c E    4.4   48844   221054       433     327  11555   595   3  6.7 269.2   20
c [elim-2] 40536 variables 83% will be scheduled this time
c [elim-2] scheduled 40536 variables 83%
c [elim-2] limit of 5000000 steps penalty 0 = 0 + 0
c [elim-2] 30532 variables 63% remain to be tried next time
c [elim-2] transition to [ all 0 rem 1 ] state
c [elim-2] eliminated 1080 = 2% variables out of 48844
c e    5.3   47764   220676       433     320   8014   595   3  6.7 269.2   20
c [simplification-2] removed 1080 variables 2%
c [simplification-2] limit increments divided by 2
c [simplification-2] arithmetic increase of conflict limit interval by 5000
c [simplification-2] new irredundant limit 2195675
c [simplification-2] new conflict limit 5766
c [simplification-2] simplification penalty reduced to 2
c R    5.5   47764   220676       979     826   8023   622   6  8.2 265.8   25
c -    5.6   47764   220676      1212     501   8038   660   3  7.5 240.5   25
c 1    5.8   47764   220676      1923    1125   8063   715   6  7.3 243.1   25
c 
c blkd: 2 bces, 4400 removed, 1316135 resolutions, 3671856 steps
c blkd: 4400 blocking literals 1%, 0 pure
c cces: 2 cces, 434 eliminated, 434 ate 100%, 0 abce 0%
c cces: 12296 probed, 0 lifted, 3 failed
c clff: 2 cliffs, 1 lifted, 0 failed
c clff: 8152 decisions, 20005401 steps
c clls: 1 sat, 0 simp, 0 freeze, 0 melt
c clls: 2075611 add, 0 assume,, 0 deref, 0 failed
c clls: 0 cassume, 0 mosat
c coll: 14 gcs, 0 rescored clauses
c cgrs: 2 count, 300021 esteps, 73097 csteps
c cgrs: 0 eqs, 0 units
c cgrs: 0 matched (0 ands 0%, 0 xors 0%, 0 ites 0%)
c cgrs: 0 simplified (0 ands 0%, 0 xors 0%, 0 ites 0%)
c cgrs: 2090 extracted (1773 ands 85%, 317 xors 15%, 0 ites 0%)
c dcps: 2 decompositions, 64606 equivalent 30%
c decs: 35907 decision, 36 random 0.100%
c decs: 7530 flipped 20.971% (in 14 phases)
c elms: 2 elims, 7320 eliminated 3%
c elms: 7320 small 100%, 0 large 0%
c elms: 24666 tried small, 7320 succeeded 30%, 17346 failed 70%
c elms: 0 subsumed, 0 strengthened, 0 blocked
c elms: 313138 copies, 219575 resolutions, 649360 ipos
c elms: 0 subchks, 0 strchks
c frcs: 0 computed, 29.7 - 70.3 average min-cut range
c gaus: 2 extractions, 167690 extracted, 2.0 size, 3 max
c gaus: exported 0 units, 0 binary and 0 ternary equations
c gaus: 0 gc, 6000150 steps, 3000075 extr 50%, 2230244 elim 37%
c glue: 7.3 avg, 2.7 scaled avg
c glue: 0 maxredglue=15 (0%)
c lift: 2 phases, 204 probed (68 level1 33%, 136 level2 67%)
c lift: 0 units, 0 equivalences, 0 implications
c hbrs: 28731 hbrs = 28731 trn 100% + 0 lrg 0%, 3 sub 0%
c lrnd: 1904 clauses, 1193 uips 63%, 31.7 length, 7.3 glue
c ints: 126 luby (11736 steps), 0 inout (0 steps)
c mins: 60360 learned lits, 3% minimized
c move: moved 4834, 434 binary 9%, 4400 ternary 91%
c otfs: str 62 dyn (46 red, 16 irr) 19 drv 31%, 43 rst 69%
c otfs: sub 0 dyn (0 red, 0 irr)
c phas: 1 computed, 451 set, 68 pos (15%), 383 neg (85%)
c prbs: 2 basic, 2461 probed, 1 failed, 0 lifted
c prps: 11101285 props, 117 props/dec
c prps: 38% srch, 62% simp, 0% lkhd
c psns: 240636 searches, 39107 hits, 16% hit rate
c queu: 7104 new, 2316 del, 120 maximum priority
c queu: 4774 merged, 877 collected, 2 gcs
c queu: 1966 deprioritized, 23.7 lines on average
c reds: 1 count, 0 reset, 1 acts 100%, 0 exp 0%
c reds: 1 arithmetic 100%, 1 double 100%
c rmbd: 6 removed, 0 red 0%
c rsts: 100 restarts 80%, 25 skipped 20%
c rsts: 20 kept 20.0% average 61.4%
c simp: 2 count (0 ilim 0%, 0 plim 0%, 2 clim 100%)
c trnr: 2 count, 0 bin, 11 trn, 4799807 steps
c tops: 98097 fixed 45%, 0 iterations
c trds: 4 transitive reductions, 14 removed, 0 failed
c trds: 216 nodes, 269 edges, 200457 steps
c unhd: 2 count, 2 rounds, 2338972 steps
c unhd: 0 non-trivial sccs of average size 0.0
c unhd: 0 units, 0 bin, 0 trn, 0 lrg
c unhd: 1 failed, 1 stamp, 0 lits, 0 bin, 0 trn, 0 lrg
c unhd: 20352 tauts, 0 bin 0%, 1 trn 0%, 1 lrg 0%
c unhd: 20352 tauts, 20350 stamp 100%, 898 red 4%
c unhd: 0 hbrs, 0 trn 0%, 0 lrg 0%, 0 red 0%
c unhd: 149 strd, 0 bin 0%, 1 trn 1%, 148 lrg 99%, 149 red 100%
c vars: 47764 remaining 22% and 170023 removed 78% out of 217787
c vars: 98097 fixed 45%, 7320 eliminated 3%, 64606 equivalent 30%
c vsts: 51373946 visits, 39% srch, 61% simp, 0% lkhd
c vsts: 4.8 search visits per propagation 10495.8 per conflict
c wchs: 7735366 pushed, 3542204 enlarged, 22 defrags
c 
c scaledglue  added       reduced       forcing      resolved     conflicts
c 
c all      1688 100       501 100      6304 100      3242 100       221 100
c 
c  0          0   0         0   0         0   0         0   0         0   0 
c  1         20   1         0   0        78   1        37   1         1   0 
c  2        646  38       198  40      2462  39      1079  33        58  26 
c  3        550  33<      187  37<     2514  40<     1168  36<       87  39<
c  4        316  19        69  14      1000  16       691  21        63  29 
c  5        108   6        29   6       189   3       196   6        11   5 
c  6         31   2        13   3        44   1        45   1         1   0 
c  7         11   1         2   0        11   0        18   1         0   0 
c  8          5   0         2   0         5   0         7   0         0   0 
c  9          0   0         0   0         0   0         0   0         0   0 
c 10          0   0         0   0         0   0         0   0         0   0 
c 11          0   0         0   0         0   0         0   0         0   0 
c 12          0   0         0   0         0   0         0   0         0   0 
c 13          0   0         0   0         0   0         0   0         0   0 
c 14          1   0         1   0         1   0         1   0         0   0 
c 15          0   0         0   0         0   0         0   0         0   0 
c 
c avg             3.0           3.0           2.8           3.1           3.1
c std             1.1           1.2           0.9           1.1           0.9
c 
c 35907 decisions, 1923 conflicts, 329.0 conflicts/sec
c 11101285 propagations, 1.9 megaprops/sec
c 5.8 seconds, 47.7 MB
c 
c    0.064   1% analysis
c    0.280   5% block
c    0.004   0% bump
c    0.000   0% card
c    0.684  12% cce
c    0.652  11% cliff
c    0.012   0% cutwidth
c    0.028   0% decide
c    0.000   0% force
c    0.564  10% gc
c    0.208   4% cgrclsr
c    0.212   4% decomp
c    0.144   2% defrag
c    1.872  32% elim
c    0.592  10% gauss
c    0.168   3% lift
c    0.016   0% mincls
c    0.024   0% phase
c    0.104   2% probe
c    0.004   0% reduce
c    0.048   1% restart
c    0.080   1% ternres
c    0.016   0% transred
c    0.196   3% unhide
c ==================================
c    0.016   0% preprocessing     0%
c    5.172  89% inprocessing    100%
c ==================================
c    5.188  89% simplifying
c    0.000   0% lookahead
c    0.644  11% search
c ==================================
c    5.844 100% all
c
s SATISFIABLE
